200
200 200
1 160 975
2 159 102
3 159 680
4 158 874
5 158 759
6 158 383
7 157 621
8 156 334
9 155 452
10 153 304
11 153 521
12 153 508
13 152 869
14 152 339
15 151 331
16 150 888
17 150 499
18 150 509
19 149 777
20 149 100
21 148 143
22 146 847
23 146 503
24 145 630
25 144 230
26 143 376
27 142 312
28 141 451
29 139 953
30 139 487
31 136 46
32 135 975
33 134 20
34 134 227
35 134 978
36 134 414
37 134 441
38 133 831
39 133 219
40 133 958
41 133 230
42 132 729
43 131 481
44 130 844
45 130 814
46 128 858
47 128 424
48 128 468
49 127 300
50 127 456
51 127 53
52 126 416
53 126 353
54 126 288
55 126 539
56 126 486
57 125 198
58 124 98
59 124 891
60 124 431
61 124 359
62 124 594
63 123 420
64 123 591
65 122 975
66 122 321
67 120 139
68 120 212
69 118 344
70 117 517
71 117 955
72 116 855
73 116 263
74 115 293
75 115 784
76 115 110
77 115 611
78 115 90
79 114 801
80 114 947
81 114 771
82 114 934
83 113 581
84 112 508
85 112 355
86 111 186
87 110 36
88 110 899
89 109 123
90 109 799
91 108 718
92 106 603
93 106 928
94 105 516
95 105 4
96 105 686
97 104 858
98 104 773
99 103 322
100 103 263
101 102 813
102 102 556
103 102 965
104 102 22
105 101 796
106 100 875
107 99 206
108 99 91
109 99 952
110 98 590
111 98 305
112 98 966
113 97 566
114 96 336
115 96 313
116 95 931
117 94 34
118 92 357
119 92 425
120 92 482
121 92 681
122 91 463
123 90 429
124 90 226
125 89 22
126 88 584
127 87 8
128 85 844
129 85 458
130 85 797
131 84 611
132 84 767
133 84 531
134 83 602
135 83 868
136 83 497
137 82 437
138 82 853
139 82 366
140 82 629
141 82 791
142 81 658
143 80 613
144 80 475
145 80 175
146 80 857
147 80 457
148 79 575
149 78 304
150 77 131
151 74 853
152 73 456
153 73 823
154 73 156
155 71 21
156 70 329
157 70 729
158 70 89
159 69 897
160 69 536
161 68 318
162 66 121
163 66 444
164 66 536
165 65 311
166 64 216
167 62 994
168 62 185
169 61 501
170 60 790
171 60 357
172 59 347
173 57 51
174 57 268
175 56 9
176 56 177
177 55 991
178 55 588
179 54 463
180 53 402
181 52 558
182 52 570
183 52 110
184 50 109
185 50 26
186 49 300
187 49 373
188 48 931
189 46 414
190 46 340
191 46 938
192 45 924
193 45 405
194 45 617
195 43 740
196 42 140
197 42 779
198 42 509
199 42 670
200 40 97
